# Cost: 970

# Tail Head Net
7500 7600 1
7600 7700 1
7700 7800 1
7800 7900 1
7900 8000 1
8000 8100 1
8100 8200 1
8200 8300 1
8300 8400 1
8400 8500 1
8500 8600 1
8600 8700 1
8700 8800 1
8800 8900 1
8900 9000 1
9000 9100 1
9100 9200 1
9200 9300 1
9300 9400 1
9400 9500 1
9500 9600 1
9600 9700 1
9700 9800 1
9800 9900 1
9821 9921 1
9822 9821 1
9823 9822 1
9824 9823 1
9825 9824 1
9826 9825 1
9827 9826 1
9828 9827 1
9829 9828 1
9830 9829 1
9831 9830 1
9832 9831 1
9833 9832 1
9834 9833 1
9835 9834 1
9836 9835 1
9837 9836 1
9838 9837 1
9839 9838 1
9840 9839 1
9841 9840 1
9842 9841 1
9843 9842 1
9844 9843 1
9845 9844 1
9846 9845 1
9847 9846 1
9848 9847 1
9849 9848 1
9850 9849 1
9851 9850 1
9852 9851 1
9853 9852 1
9854 9853 1
9855 9854 1
9856 9855 1
9857 9856 1
9858 9857 1
9859 9858 1
9860 9859 1
9861 9860 1
9862 9861 1
9863 9862 1
9864 9863 1
9865 9864 1
9866 9865 1
9867 9866 1
9868 9867 1
9869 9868 1
9870 9869 1
9871 9870 1
9872 9871 1
9873 9872 1
9874 9873 1
9875 9874 1
9876 9875 1
9877 9876 1
9878 9877 1
9879 9878 1
9880 9879 1
9881 9880 1
9882 9881 1
9883 9882 1
9884 9883 1
9885 9884 1
9886 9885 1
9887 9886 1
9888 9887 1
9889 9888 1
9890 9889 1
9891 9890 1
9892 9891 1
9893 9892 1
9894 9893 1
9895 9894 1
9896 9895 1
9897 9896 1
9898 9897 1
9899 9898 1
9900 9899 1
9903 9902 2
9923 19923 2
9924 9923 2
9925 9924 2
9926 9925 2
9927 9926 2
9928 9927 2
9929 9928 2
9930 9929 2
9931 9930 2
9932 9931 2
9933 9932 2
9934 9933 2
9935 9934 2
9936 9935 2
9937 9936 2
9938 9937 2
9939 9938 2
9940 9939 2
9941 9940 2
9942 9941 2
9943 9942 2
9944 9943 2
9945 9944 2
9946 9945 2
9947 9946 2
9948 9947 2
9949 9948 2
9950 9949 2
9951 9950 2
9952 9951 2
9953 9952 2
9954 9953 2
9955 9954 2
9956 9955 2
9957 9956 2
9958 9957 2
9959 9958 2
9960 9959 2
9961 9960 2
9962 9961 2
9963 9962 2
9964 9963 2
9965 9964 2
9966 9965 2
9967 9966 2
9968 9967 2
9969 9968 2
9970 9969 2
9971 9970 2
9972 9971 2
9973 9972 2
9974 9973 2
9975 9974 2
9976 9975 2
9977 9976 2
9978 9977 2
9979 9978 2
9980 9979 2
9981 9980 2
9982 9981 2
9983 9982 2
9984 9983 2
9985 9984 2
9986 9985 2
9987 9986 2
9988 9987 2
9989 9988 2
9990 9989 2
9991 9990 2
19903 9903 2
19904 19903 2
19905 19904 2
19906 19905 2
19907 19906 2
19908 19907 2
19909 19908 2
19910 19909 2
19911 19910 2
19912 19911 2
19913 19912 2
19914 19913 2
19915 19914 2
19916 19915 2
19917 19916 2
19918 19917 2
19919 19918 2
19920 19919 2
19921 19920 2
19922 19921 2
19923 19922 2
2500 2400 3
2501 2502 3
2502 2503 3
2503 2504 3
2504 2505 3
2505 2506 3
2506 2507 3
2507 2508 3
2508 2509 3
2509 2510 3
2510 2511 3
2511 2512 3
2512 2513 3
2513 2514 3
2514 2515 3
2515 2516 3
2516 2517 3
2517 2518 3
2518 2519 3
2519 2520 3
2520 2521 3
2521 2522 3
2522 2523 3
2523 2524 3
2524 2525 3
2525 2526 3
2526 2527 3
2527 2528 3
2528 2529 3
2529 2530 3
2530 2531 3
2531 2532 3
2532 2533 3
2533 2534 3
2534 2535 3
2535 2536 3
2536 2537 3
2537 2538 3
2538 2539 3
2539 2540 3
2540 2541 3
2541 2542 3
2542 2543 3
2543 2544 3
2544 2545 3
2545 2546 3
2546 2547 3
2547 2548 3
2548 2549 3
2549 2550 3
2550 2551 3
2551 2552 3
2552 2553 3
2553 2554 3
2554 2555 3
2555 2556 3
2556 2557 3
2557 2558 3
2558 2559 3
2559 2560 3
2560 2561 3
2561 2562 3
2562 2563 3
2563 2564 3
2564 2565 3
2565 2566 3
2566 2567 3
2567 2568 3
2568 2569 3
2569 2570 3
2570 2571 3
2571 2572 3
2572 2573 3
2573 2574 3
2574 2575 3
2575 2576 3
2576 2577 3
2577 2578 3
2578 2579 3
2579 2580 3
2580 2581 3
2581 2582 3
2582 2583 3
2583 2584 3
2584 2585 3
2585 2586 3
2586 2587 3
2587 2588 3
2588 2589 3
2589 2590 3
2590 2591 3
2591 2592 3
2592 2593 3
2593 2594 3
2594 2595 3
2595 2596 3
2596 2597 3
2597 2598 3
2598 2599 3
2599 2600 3
2600 2500 3
2600 2700 3
2700 2800 3
2800 2900 3
2900 3000 3
3000 3100 3
3100 3200 3
3200 3300 3
 15  14 4
115  15 4
215 115 4
315 215 4
415 315 4
515 415 4
615 515 4
715 615 4
815 715 4
10815 815 4
10915 10815 4
11015 10915 4
11115 11015 4
11215 11115 4
11315 11215 4
11415 11315 4
11515 11415 4
11615 11515 4
11715 11615 4
11815 11715 4
11915 11815 4
12015 11915 4
12115 12015 4
12215 12115 4
12315 12215 4
12415 12315 4
12515 12415 4
12516 12515 4
12616 12516 4
12716 12616 4
12816 12716 4
12916 12816 4
13016 12916 4
13116 13016 4
13216 13116 4
13316 13216 4
13416 13316 4
13516 13416 4
13616 13516 4
13716 13616 4
13816 13716 4
13916 13816 4
14016 13916 4
14116 14016 4
14216 14116 4
14316 14216 4
14416 14316 4
14516 14416 4
14616 14516 4
14716 14616 4
14816 14716 4
14916 14816 4
15016 14916 4
15116 15016 4
15216 15116 4
15316 15216 4
15416 15316 4
15516 15416 4
15616 15516 4
15716 15616 4
15816 15716 4
15916 15816 4
16016 15916 4
6117 16117 4
16116 16016 4
6217 6117 4
16117 16116 4
6218 6217 4
6219 6218 4
6220 6219 4
6221 6220 4
6222 6221 4
6223 6222 4
6224 6223 4
6225 6224 4
6226 6225 4
6227 6226 4
6228 6227 4
6229 6228 4
6230 6229 4
6231 6230 4
6232 6231 4
6233 6232 4
6234 6233 4
6235 6234 4
6236 6235 4
6237 6236 4
6238 6237 4
6239 6238 4
6240 6239 4
6241 6240 4
6242 6241 4
6243 6242 4
6244 6243 4
6245 6244 4
6246 6245 4
6247 6246 4
6248 6247 4
6249 6248 4
6250 6249 4
6251 6250 4
6252 6251 4
6253 6252 4
6254 6253 4
6255 6254 4
6256 6255 4
6257 6256 4
6258 6257 4
6259 6258 4
6260 6259 4
6261 6260 4
6262 6261 4
6263 6262 4
6264 6263 4
6265 6264 4
6266 6265 4
6267 6266 4
6268 6267 4
6269 6268 4
6270 6269 4
6271 6270 4
6272 6271 4
6273 6272 4
6274 6273 4
6275 6274 4
6276 6275 4
6277 6276 4
6278 6277 4
6279 6278 4
6280 6279 4
6281 6280 4
6282 6281 4
6283 6282 4
6284 6283 4
6285 6284 4
6286 6285 4
6287 6286 4
6288 6287 4
6289 6288 4
6290 6289 4
6291 6290 4
6292 6291 4
6293 6292 4
6294 6293 4
6394 6294 4
6395 6394 4
6396 6395 4
6397 6396 4
6398 6397 4
6498 6398 4
6598 6498 4
6698 6598 4
6798 6698 4
6799 6798 4
6899 6799 4
6999 6899 4
7000 6999 4
7000 7100 4
7100 7200 4
7200 7300 4
7300 7400 4
10016 10116 5
10017 10016 5
10018 10017 5
10019 10018 5
10020 10019 5
10021 10020 5
10022 10021 5
10023 10022 5
10024 10023 5
10025 10024 5
10026 10025 5
10027 10026 5
10028 10027 5
10029 10028 5
10030 10029 5
10031 10030 5
10032 10031 5
10033 10032 5
10034 10033 5
10035 10034 5
10036 10035 5
10037 10036 5
10038 10037 5
10039 10038 5
10040 10039 5
10041 10040 5
10042 10041 5
10043 10042 5
10044 10043 5
10045 10044 5
10046 10045 5
10047 10046 5
10048 10047 5
10049 10048 5
10050 10049 5
10051 10050 5
10052 10051 5
10053 10052 5
10054 10053 5
10055 10054 5
10056 10055 5
10057 10056 5
10058 10057 5
10059 10058 5
10060 10059 5
10061 10060 5
10062 10061 5
10063 10062 5
10064 10063 5
10065 10064 5
10066 10065 5
10067 10066 5
10068 10067 5
10069 10068 5
10070 10069 5
10071 10070 5
10072 10071 5
 74 10074 5
10073 10072 5
 75  74 5
10074 10073 5
 76  75 5
 77  76 5
 78  77 5
 79  78 5
201 301 5
202 201 5
203 202 5
204 203 5
205 204 5
206 205 5
207 206 5
208 207 5
209 208 5
210 209 5
211 210 5
212 211 5
213 212 5
214 213 5
10115 10215 5
10116 10115 5
301 401 5
10214 214 5
10215 10214 5
401 501 5
501 601 5
601 701 5
701 801 5
801 901 5
901 1001 5
1001 1101 5
1101 1201 5
1201 1301 5
1301 1401 5
1401 1501 5
1501 1601 5
1601 1701 5
1701 1801 5
4901 5001 6
5001 5101 6
5101 5201 6
5201 5301 6
5301 5401 6
5401 5501 6
5501 5601 6
5601 5701 6
5701 5801 6
5801 5901 6
5901 6001 6
6001 6101 6
6101 6201 6
 22  23 7
 23  24 7
 24  25 7
 25  26 7
 26  27 7
 27  28 7
 28  29 7
 29  30 7
 30  31 7
 31  32 7
 32  33 7
 33  34 7
 34  35 7
 35  36 7
 36  37 7
 37  38 7
 38 138 7
138 238 7
238 338 7
338 438 7
438 538 7
538 638 7
638 738 7
738 838 7
838 938 7
938 1038 7
1038 1138 7
1138 1238 7
1238 1239 7
1239 1240 7
1240 1241 7
1241 1242 7
1242 1243 7
1243 1244 7
1244 1245 7
1245 1246 7
1246 1247 7
1247 1248 7
1248 1249 7
1249 1250 7
1250 1251 7
1251 1252 7
1252 1253 7
1253 1254 7
1254 1255 7
1255 1256 7
1256 1257 7
1257 1258 7
1258 1259 7
1259 1260 7
1260 1261 7
1261 1262 7
1262 1263 7
1263 1264 7
1264 1265 7
1265 1266 7
1266 1267 7
1267 1268 7
1268 1269 7
1269 1270 7
1270 1271 7
1271 1272 7
1272 1273 7
1273 1274 7
1274 1275 7
1275 1276 7
1276 1277 7
1277 1278 7
1278 1279 7
1279 1280 7
1280 1281 7
1281 1282 7
1282 1283 7
1283 1284 7
1284 1285 7
1285 1286 7
1286 1287 7
1287 1288 7
1288 1289 7
1289 1290 7
1290 1291 7
1291 1292 7
1292 1293 7
1293 1294 7
1294 1295 7
1295 1296 7
1296 1297 7
1297 1298 7
1298 1299 7
1299 1300 7
 90 190 8
190 290 8
290 390 8
390 490 8
490 590 8
590 690 8
687 787 8
688 687 8
689 688 8
690 689 8
786 886 8
787 786 8
884 984 8
885 884 8
886 885 8
940 1040 8
941 940 8
942 941 8
943 942 8
944 943 8
945 944 8
946 945 8
947 946 8
948 947 8
949 948 8
950 949 8
951 950 8
952 951 8
953 952 8
954 953 8
955 954 8
956 955 8
957 956 8
958 957 8
959 958 8
960 959 8
961 960 8
962 961 8
963 962 8
964 963 8
965 964 8
966 965 8
967 966 8
968 967 8
969 968 8
970 969 8
971 970 8
972 971 8
973 972 8
974 973 8
975 974 8
976 975 8
977 976 8
978 977 8
979 978 8
980 979 8
981 980 8
982 981 8
983 982 8
984 983 8
1040 1140 8
1140 11140 8
11140 11240 8
11240 11340 8
11333 11433 8
11334 11333 8
11335 11334 8
11336 11335 8
11337 11336 8
11338 11337 8
11339 11338 8
11340 11339 8
11433 11533 8
11533 11633 8
11633 11733 8
11733 11833 8
11833 11933 8
11933 12033 8
12033 12133 8
12133 12233 8
12233 12333 8
12333 12433 8
12433 12533 8
12532 12632 8
12533 12532 8
12631 12731 8
12632 12631 8
12731 12831 8
12831 12931 8
12931 13031 8
13031 13131 8
13131 13231 8
13231 13331 8
13331 13431 8
13431 13531 8
13531 13631 8
13631 13731 8
13731 13831 8
13831 13931 8
13930 14030 8
13931 13930 8
14030 14130 8
14129 14229 8
14130 14129 8
14221 14321 8
14222 14221 8
14223 14222 8
14224 14223 8
14225 14224 8
14226 14225 8
14227 14226 8
14228 14227 8
14229 14228 8
14321 14421 8
14421 14521 8
14521 14621 8
14621 14721 8
14721 14821 8
14821 14921 8
14921 15021 8
15021 15121 8
15121 15221 8
15221 15321 8
15321 15421 8
15421 15521 8
15521 15621 8
15621 15721 8
15721 15821 8
15820 15920 8
15821 15820 8
15920 16020 8
16020 16120 8
16120 16220 8
16220 16320 8
16320 16420 8
16420 16520 8
16520 16620 8
16620 16720 8
6817 6917 8
6818 6817 8
6819 6818 8
6820 6819 8
16720 16820 8
6917 7017 8
16820 6820 8
7017 7117 8
7117 7217 8
7217 7317 8
7317 7417 8
7402 7401 8
7403 7402 8
7404 7403 8
7405 7404 8
7406 7405 8
7407 7406 8
7408 7407 8
7409 7408 8
7410 7409 8
7411 7410 8
7412 7411 8
7413 7412 8
7414 7413 8
7415 7414 8
7416 7415 8
7417 7416 8
7417 7517 8
7517 7617 8
7617 7717 8
7717 7817 8
7817 7917 8
7917 8017 8
8017 8117 8
8117 8217 8
8217 8317 8
8317 8417 8
8417 8517 8
8517 8617 8
8617 8717 8
8717 8817 8
8817 8917 8
8917 9017 8
9017 9117 8
9117 9217 8
9217 9317 8
9317 9417 8
9417 9517 8
9517 9617 8
9617 9717 8
9717 9817 8
9817 9917 8
6501 6601 9
6601 6701 9
6701 6801 9
6801 6901 9
6901 7001 9
7001 7101 9
7101 7201 9
7201 7301 9
7301 17301 9
17301 17401 9
17401 17501 9
7601 7701 9
17501 17601 9
17601 7601 9
 69 169 10
169 170 10
170 171 10
171 271 10
271 272 10
272 372 10
372 373 10
373 374 10
374 375 10
375 475 10
475 575 10
575 576 10
576 577 10
577 677 10
677 10677 10
10677 10678 10
10678 10778 10
10778 10779 10
10779 10879 10
10879 10979 10
10979 10980 10
10980 10981 10
10981 10982 10
10982 10983 10
10983 10984 10
10984 10985 10
10985 10986 10
10986 10987 10
10987 10988 10
1088 1089 10
10988 11088 10
1089 1090 10
1090 1091 10
1091 1092 10
1092 1093 10
1093 1094 10
1094 1095 10
1095 1096 10
1096 1097 10
1097 1098 10
1098 1099 10
1099 1100 10
11088 1088 10
4900 5000 11
5000 5100 11
5100 5200 11
5200 5300 11
5300 5400 11
5400 5500 11
5500 5600 11
5600 5700 11
5700 5800 11
5799 5899 11
5800 5799 11
5899 15899 11
15899 15999 11
15998 16098 11
15999 15998 11
16098 16198 11
16198 16298 11
16297 16397 11
16298 16297 11
16397 16497 11
16497 16597 11
16597 16697 11
16697 16797 11
16797 16897 11
16897 16997 11
16997 17097 11
17096 17196 11
17097 17096 11
17196 17296 11
17296 17396 11
17395 17495 11
17396 17395 11
17495 17595 11
17595 17695 11
17695 17795 11
17795 17895 11
17895 17995 11
17995 18095 11
18095 18195 11
18195 18295 11
18295 18395 11
18395 18495 11
18495 18595 11
18595 18695 11
18695 18795 11
18795 18895 11
18895 18995 11
18995 19095 11
19095 19195 11
19195 19295 11
19295 19395 11
19395 19495 11
19495 19595 11
19595 19695 11
19695 19795 11
19795 19895 11
19895 19995 11
19995 9995 11
